words_hard_train/7393.qaiger
aag 84 19 0 1 65
2
4
12
16
22
24
40
42
66
68
88
90
108
116
118
132
142
144
160
169
6 3 4
8 2 5
10 7 9
14 10 12
18 14 17
20 19 9
26 23 24
28 22 25
30 27 29
32 20 31
34 21 30
36 33 35
38 35 29
44 41 42
46 40 43
48 45 47
50 38 49
52 39 48
54 51 53
56 37 55
58 11 13
60 58 16
62 61 19
64 53 47
70 67 68
72 66 69
74 71 73
76 64 75
78 65 74
80 77 79
82 63 81
84 56 82
86 79 73
92 89 90
94 88 91
96 93 95
98 86 97
100 87 96
102 99 101
104 85 102
106 84 103
110 107 109
112 105 111
114 101 95
120 117 118
122 116 119
124 121 123
126 114 125
128 115 124
130 127 129
134 131 132
136 113 135
138 130 133
140 137 139
146 142 144
148 143 145
150 147 149
152 129 123
154 150 152
156 151 153
158 155 157
162 159 160
164 140 163
166 158 161
168 165 167
i0 1 x1[1]
i1 1 x2[1]
i2 1 x1[0]
i3 1 x2[0]
i4 1 x1[2]
i5 1 x2[2]
i6 1 x1[3]
i7 1 x2[3]
i8 1 x1[4]
i9 1 x2[4]
i10 1 x1[5]
i11 1 x2[5]
i12 2 y1[0]
i13 1 x1[6]
i14 1 x2[6]
i15 2 y1[1]
i16 1 x1[7]
i17 1 x2[7]
i18 2 y1[2]
o0 bv[0]
c
simplified
  >=
    << 5
      2 y1
    subtract
      1 x1
      add
        1
        1 x2
