words_hard_train/7393.qaiger.qdimacs
p cnf 84 196
a 1 2 33 34 6 71 8 72 11 12 44 45 20 21 58 59 0
e 3 4 5 7 9 10 13 14 15 16 17 18 19 22 23 24 25 26 27 28 29 30 31 32 35 36 37 38 39 40 41 42 43 46 47 48 49 50 51 52 53 54 55 56 57 60 61 62 63 64 65 66 67 68 69 70 73 74 75 76 77 78 79 80 81 82 83 84 0
1 -2 3 0
-1 -3 0
2 -3 0
-1 2 4 0
1 -4 0
-2 -4 0
3 4 5 0
-3 -5 0
-4 -5 0
-5 -6 7 0
5 -7 0
6 -7 0
-7 8 9 0
7 -9 0
-8 -9 0
9 4 10 0
-9 -10 0
-4 -10 0
11 -12 13 0
-11 -13 0
12 -13 0
-11 12 14 0
11 -14 0
-12 -14 0
13 14 15 0
-13 -15 0
-14 -15 0
-10 15 16 0
10 -16 0
-15 -16 0
10 -15 17 0
-10 -17 0
15 -17 0
16 17 18 0
-16 -18 0
-17 -18 0
17 14 19 0
-17 -19 0
-14 -19 0
20 -21 22 0
-20 -22 0
21 -22 0
-20 21 23 0
20 -23 0
-21 -23 0
22 23 24 0
-22 -24 0
-23 -24 0
-19 24 25 0
19 -25 0
-24 -25 0
19 -24 26 0
-19 -26 0
24 -26 0
25 26 27 0
-25 -27 0
-26 -27 0
18 27 28 0
-18 -28 0
-27 -28 0
5 6 29 0
-5 -29 0
-6 -29 0
-29 -8 30 0
29 -30 0
8 -30 0
30 9 31 0
-30 -31 0
-9 -31 0
26 23 32 0
-26 -32 0
-23 -32 0
33 -34 35 0
-33 -35 0
34 -35 0
-33 34 36 0
33 -36 0
-34 -36 0
35 36 37 0
-35 -37 0
-36 -37 0
-32 37 38 0
32 -38 0
-37 -38 0
32 -37 39 0
-32 -39 0
37 -39 0
38 39 40 0
-38 -40 0
-39 -40 0
31 40 41 0
-31 -41 0
-40 -41 0
-28 -41 42 0
28 -42 0
41 -42 0
39 36 43 0
-39 -43 0
-36 -43 0
44 -45 46 0
-44 -46 0
45 -46 0
-44 45 47 0
44 -47 0
-45 -47 0
46 47 48 0
-46 -48 0
-47 -48 0
-43 48 49 0
43 -49 0
-48 -49 0
43 -48 50 0
-43 -50 0
48 -50 0
49 50 51 0
-49 -51 0
-50 -51 0
42 -51 52 0
-42 -52 0
51 -52 0
-42 51 53 0
42 -53 0
-51 -53 0
53 54 55 0
-53 -55 0
-54 -55 0
52 55 56 0
-52 -56 0
-55 -56 0
50 47 57 0
-50 -57 0
-47 -57 0
58 -59 60 0
-58 -60 0
59 -60 0
-58 59 61 0
58 -61 0
-59 -61 0
60 61 62 0
-60 -62 0
-61 -62 0
-57 62 63 0
57 -63 0
-62 -63 0
57 -62 64 0
-57 -64 0
62 -64 0
63 64 65 0
-63 -65 0
-64 -65 0
65 -66 67 0
-65 -67 0
66 -67 0
56 67 68 0
-56 -68 0
-67 -68 0
-65 66 69 0
65 -69 0
-66 -69 0
68 69 70 0
-68 -70 0
-69 -70 0
-71 -72 73 0
71 -73 0
72 -73 0
71 72 74 0
-71 -74 0
-72 -74 0
73 74 75 0
-73 -75 0
-74 -75 0
64 61 76 0
-64 -76 0
-61 -76 0
-75 -76 77 0
75 -77 0
76 -77 0
75 76 78 0
-75 -78 0
-76 -78 0
77 78 79 0
-77 -79 0
-78 -79 0
79 -80 81 0
-79 -81 0
80 -81 0
-70 81 82 0
70 -82 0
-81 -82 0
-79 80 83 0
79 -83 0
-80 -83 0
82 83 84 0
-82 -84 0
-83 -84 0
-84 0
